4 100 1548
6 5 3 3 6 5 7 5 9 6
1 1 2 3
5
6
1 7
5 6 6
0 35.0 35.0 0.0 0.0 0 230
2 41.0 49.0 10.0 10.0 161 171 22 1 0 0 0 0 0 1 0 0 1
3 35.0 17.0 10.0 7.0 50 60 47 0 1 0 0 0 0 0 0 1 0
4 55.0 45.0 10.0 13.0 116 126 29 0 0 1 0 0 1 0 0 0 0
5 55.0 20.0 10.0 19.0 149 159 11 1 0 0 0 1 1 0 0 1 0
6 15.0 30.0 10.0 26.0 34 44 97 0 0 0 0 0 1 0 0 0 0
7 25.0 30.0 10.0 3.0 99 109 86 0 0 0 0 0 0 0 0 0 1
8 20.0 50.0 10.0 5.0 81 91 17 1 0 1 0 0 0 0 0 0 0
9 10.0 43.0 10.0 9.0 95 105 31 0 0 1 0 0 0 0 0 1 0
10 55.0 60.0 10.0 16.0 97 107 75 0 0 1 0 0 0 0 1 0 0
11 30.0 60.0 10.0 16.0 124 134 50 0 1 0 0 0 0 0 1 1 0
12 20.0 65.0 10.0 12.0 67 77 86 0 0 0 0 0 1 1 0 1 0
13 50.0 35.0 10.0 19.0 63 73 81 0 0 0 0 0 0 1 1 0 0
14 30.0 25.0 10.0 23.0 159 169 51 0 0 0 1 0 0 0 0 0 0
15 15.0 10.0 10.0 20.0 32 42 79 0 1 0 0 0 1 1 1 0 0
16 30.0 5.0 10.0 8.0 61 71 32 1 0 1 0 0 1 1 1 0 0
17 10.0 20.0 10.0 19.0 75 85 19 0 0 0 0 1 0 0 0 0 0
18 5.0 30.0 10.0 2.0 157 167 62 0 0 1 0 0 0 0 1 0 0
19 20.0 40.0 10.0 12.0 87 97 39 0 0 0 0 0 0 1 0 0 0
20 15.0 60.0 10.0 17.0 76 86 3 0 0 0 0 0 1 0 0 0 0
21 45.0 65.0 10.0 9.0 126 136 35 0 0 1 0 0 1 0 0 0 0
22 45.0 20.0 10.0 11.0 62 72 49 0 0 1 0 0 0 0 0 0 1
23 45.0 10.0 10.0 18.0 97 107 86 1 0 0 0 0 1 0 0 0 0
24 55.0 5.0 10.0 29.0 68 78 71 0 0 0 0 1 0 1 1 0 0
25 65.0 35.0 10.0 3.0 153 163 84 0 1 0 0 0 1 0 0 1 0
26 65.0 20.0 10.0 6.0 172 182 32 0 1 0 0 1 0 0 0 0 1
27 45.0 30.0 10.0 17.0 132 142 68 0 1 0 0 0 0 0 0 1 0
28 35.0 40.0 10.0 16.0 37 47 38 0 0 0 1 0 0 0 0 0 1
29 41.0 37.0 10.0 16.0 39 49 16 0 0 0 0 1 0 0 0 1 1
30 64.0 42.0 10.0 9.0 63 73 57 0 0 0 0 0 0 1 0 0 0
31 40.0 60.0 10.0 21.0 71 81 76 0 0 0 0 0 0 1 0 1 0
32 31.0 52.0 10.0 27.0 50 60 92 0 0 0 0 0 0 1 0 1 1
33 35.0 69.0 10.0 23.0 141 151 51 0 1 0 0 0 0 0 0 0 0
34 53.0 52.0 10.0 11.0 37 47 19 1 0 0 0 0 0 0 1 0 0
35 65.0 55.0 10.0 14.0 117 127 64 0 0 0 0 1 1 0 0 0 1
36 63.0 65.0 10.0 8.0 143 153 26 0 0 0 0 0 1 0 0 0 0
37 2.0 60.0 10.0 5.0 41 51 63 0 0 0 0 0 0 0 1 0 0
38 20.0 20.0 10.0 8.0 134 144 75 0 0 0 0 0 1 0 0 0 0
39 5.0 5.0 10.0 16.0 83 93 28 0 0 0 1 0 1 0 1 0 0
40 60.0 12.0 10.0 31.0 44 54 75 0 0 0 0 0 1 0 0 0 0
41 40.0 25.0 10.0 9.0 85 95 87 0 0 0 0 1 0 0 0 1 0
42 42.0 7.0 10.0 5.0 97 107 56 0 1 0 0 0 1 0 0 0 1
43 24.0 12.0 10.0 5.0 31 41 8 0 1 0 0 0 0 0 0 0 0
44 23.0 3.0 10.0 7.0 132 142 51 0 0 0 0 0 0 0 1 0 0
45 11.0 14.0 10.0 18.0 69 79 63 0 1 0 0 0 0 1 0 0 1
46 6.0 38.0 10.0 16.0 32 42 87 0 1 0 1 0 1 0 0 1 0
47 2.0 48.0 10.0 1.0 117 127 53 0 0 0 1 0 0 0 0 1 0
48 8.0 56.0 10.0 27.0 51 61 86 0 0 0 1 0 0 0 0 0 0
49 13.0 52.0 10.0 36.0 165 175 69 0 0 0 0 1 0 0 0 0 0
50 6.0 68.0 10.0 30.0 108 118 78 1 0 0 0 0 0 0 0 0 0
51 47.0 47.0 10.0 13.0 124 134 51 0 1 0 0 1 0 0 0 0 0
52 49.0 58.0 10.0 10.0 88 98 73 0 1 1 1 1 0 0 0 0 0
53 27.0 43.0 10.0 9.0 52 62 22 0 0 1 0 0 0 0 0 0 0
54 37.0 31.0 10.0 14.0 95 105 18 0 0 0 0 0 0 0 0 1 0
55 57.0 29.0 10.0 18.0 140 150 42 0 0 0 0 0 0 0 0 1 0
56 63.0 23.0 10.0 2.0 136 146 81 0 1 0 0 1 1 0 0 0 0
57 53.0 12.0 10.0 6.0 130 140 26 0 0 0 0 0 1 0 0 0 0
58 32.0 12.0 10.0 7.0 101 111 52 0 0 0 0 1 0 0 0 1 0
59 36.0 26.0 10.0 18.0 200 210 59 0 0 0 0 0 0 0 1 0 0
60 21.0 24.0 10.0 28.0 18 28 34 0 0 0 0 0 0 0 0 0 1
61 17.0 34.0 10.0 3.0 162 172 54 0 1 0 1 0 0 0 0 1 0
62 12.0 24.0 10.0 13.0 76 86 96 0 0 0 0 0 0 0 1 1 0
63 24.0 58.0 10.0 19.0 58 68 23 0 0 0 0 0 0 0 0 0 1
64 27.0 69.0 10.0 10.0 34 44 70 0 0 0 0 0 1 0 0 0 0
65 15.0 77.0 10.0 9.0 73 83 38 0 0 0 0 0 1 0 0 0 0
66 62.0 77.0 10.0 20.0 51 61 2 0 0 0 0 0 0 1 1 0 0
67 49.0 73.0 10.0 25.0 127 137 15 0 0 1 0 0 1 1 0 0 0
68 67.0 5.0 10.0 25.0 83 93 63 1 0 0 0 0 0 0 0 1 0
69 56.0 39.0 10.0 36.0 142 152 21 0 0 0 0 0 0 0 1 0 0
70 37.0 47.0 10.0 6.0 50 60 79 0 0 1 0 1 0 0 0 0 0
71 37.0 56.0 10.0 5.0 182 192 11 0 0 1 1 0 0 0 0 1 0
72 57.0 68.0 10.0 15.0 77 87 74 0 0 1 0 0 0 0 0 0 0
73 47.0 16.0 10.0 25.0 35 45 17 1 0 0 0 0 0 0 0 1 0
74 44.0 17.0 10.0 9.0 78 88 32 0 1 0 0 1 0 0 0 1 0
75 46.0 13.0 10.0 8.0 149 159 69 0 0 1 0 0 1 0 0 0 1
76 49.0 11.0 10.0 18.0 69 79 74 0 0 0 0 0 1 0 0 0 0
77 49.0 42.0 10.0 13.0 73 83 54 1 0 0 0 0 1 0 0 0 0
78 53.0 43.0 10.0 14.0 179 189 62 0 0 0 0 0 1 0 0 0 0
79 61.0 52.0 10.0 3.0 96 106 21 0 0 0 0 0 0 1 0 0 0
80 57.0 48.0 10.0 23.0 92 102 22 0 0 0 0 0 1 1 0 1 1
81 56.0 37.0 10.0 6.0 182 192 71 0 0 0 1 0 0 0 1 1 0
82 55.0 54.0 10.0 26.0 94 104 89 0 0 0 0 0 0 0 0 1 0
83 15.0 47.0 10.0 16.0 55 65 12 0 0 0 0 0 1 0 0 0 0
84 14.0 37.0 10.0 11.0 44 54 62 0 0 0 0 1 0 0 0 0 0
85 11.0 31.0 10.0 7.0 101 111 95 0 1 0 0 0 0 0 0 0 0
86 16.0 22.0 10.0 41.0 91 101 26 1 0 0 0 0 0 0 0 1 1
87 4.0 18.0 10.0 35.0 94 104 41 1 0 0 0 0 0 1 0 0 1
88 28.0 18.0 10.0 26.0 93 103 79 1 1 0 1 0 0 0 0 1 0
89 26.0 52.0 10.0 9.0 74 84 51 0 0 0 0 0 0 1 1 0 0
90 26.0 35.0 10.0 15.0 176 186 81 1 0 0 0 0 0 0 0 0 1
91 31.0 67.0 10.0 3.0 95 105 52 0 1 0 1 0 0 0 0 1 0
92 15.0 19.0 10.0 1.0 160 170 9 0 1 0 0 0 0 0 1 0 0
93 22.0 22.0 10.0 2.0 18 28 45 0 1 0 0 0 0 1 0 0 0
94 18.0 24.0 10.0 22.0 188 198 21 0 0 0 1 0 0 1 0 0 0
95 26.0 27.0 10.0 27.0 100 110 54 0 0 1 0 0 0 0 0 0 0
96 25.0 24.0 10.0 20.0 39 49 21 0 0 1 0 1 0 0 0 0 0
97 22.0 27.0 10.0 11.0 135 145 0 0 1 1 1 0 0 0 0 1 0
98 25.0 21.0 10.0 12.0 133 143 42 0 0 0 0 1 1 0 0 0 0
99 19.0 21.0 10.0 10.0 58 68 74 0 0 0 0 1 1 0 0 0 0
100 20.0 26.0 10.0 9.0 83 93 56 0 1 1 0 1 0 0 0 0 0
101 18.0 18.0 10.0 17.0 185 195 96 0 0 0 0 0 1 0 0 0 0